WARNING: for repeatability, setting FPU to use double precision
============================[ Problem Statistics ]=============================
|                                                                             |
|  Number of variables:            50                                         |
|  Number of clauses:             218                                         |
|  Parse time:                   0.00 s                                       |
|                                                                             |
============================[ Search Statistics ]==============================
| Conflicts |          ORIGINAL         |          LEARNT          | Progress |
|           |    Vars  Clauses Literals |    Limit  Clauses Lit/Cl |          |
===============================================================================
|       100 |      50      218      654 |       79       61      5 |  0.124 % |
===============================================================================
restarts              : 2
conflicts             : 143            (329493 /sec)
decisions             : 154            (0.00 % random) (354839 /sec)
propagations          : 2129           (4905530 /sec)
conflict literals     : 686            (19.86 % deleted)
Memory used           : 20.00 MB
CPU time              : 0.000434 s

UNSATISFIABLE
